c A SAT instance generated from a 2-CNF formula that had 21 clauses and 8 variables
p cnf 8 21
-4 2 0
7 1 0
-1 5 0
-8 4 0
4 -6 0
2 6 0
-5 -1 0
-5 -4 0
1 -8 0
4 3 0
-3 8 0
-2 7 0
-5 -8 0
6 3 0
-3 7 0
-4 -8 0
4 8 0
-7 4 0
-2 -4 0
-6 7 0
-5 -2 0
